% Auto-generated by scripts/generate_dzn.py
% problem_type   = regex
% instance       = regex_68
% source_json    = instances_json/2_high_blowup/regex_68.json
% blowup         = 20.217391304347824
% representation = DFA

mode = 0;

var_count = 24;
Q = 465;
S = 2;
q0 = 1;
F = {266, 267, 268, 269, 270, 271, 272, 273, 274, 275, 276, 277, 278, 279, 280, 281, 282, 283, 284, 285, 286, 287, 288, 289, 290, 291, 292, 293, 294, 295, 296, 297, 298, 299, 300, 301, 302, 303, 304, 305, 306, 307, 308, 309, 310, 311, 312, 313, 314, 315, 316, 317, 318, 319, 320, 321, 322, 323, 324, 325, 326, 327, 328, 329, 330, 331, 332, 333, 334, 335, 336, 337, 338, 339, 340, 341, 342, 343, 344, 345, 346, 347, 348, 349, 350, 351, 352, 353, 354, 355, 356, 357, 358, 359, 360, 361, 362, 363, 364, 365, 366, 367, 368, 369, 370, 371, 372, 373, 374, 375, 376, 377, 378, 379, 380, 381, 382, 383, 384, 385, 386, 387, 388, 389, 390, 391, 392, 393, 394, 395, 396, 397, 398, 399, 400, 401, 402, 403, 404, 405, 406, 407, 408, 409, 410, 411, 412, 413, 414, 415, 416, 417, 418, 419, 420, 421, 422, 423, 424, 425, 426, 427, 428, 429, 430, 431, 432, 433, 434, 435, 436, 437, 438, 439, 440, 441, 442, 443, 444, 445, 446, 447, 448, 449, 450, 451, 452, 453, 454, 455, 456, 457, 458, 459, 460, 461, 462, 463, 464, 465};
d_dfa = array2d(1..465, 1..2, [
  2, 1,
  3, 1,
  5, 4,
  7, 6,
  9, 8,
  11, 10,
  12, 10,
  14, 13,
  16, 15,
  18, 17,
  19, 17,
  21, 20,
  23, 22,
  24, 22,
  26, 25,
  28, 27,
  30, 29,
  31, 29,
  33, 32,
  35, 34,
  37, 36,
  39, 38,
  40, 38,
  42, 41,
  44, 43,
  45, 43,
  47, 46,
  49, 48,
  51, 50,
  52, 50,
  54, 53,
  56, 55,
  58, 57,
  60, 59,
  61, 59,
  63, 62,
  65, 64,
  67, 66,
  68, 66,
  70, 69,
  72, 71,
  74, 73,
  76, 75,
  77, 75,
  79, 78,
  81, 80,
  82, 80,
  84, 83,
  86, 85,
  88, 87,
  89, 87,
  91, 90,
  93, 92,
  95, 94,
  97, 96,
  98, 96,
  100, 99,
  102, 101,
  104, 103,
  105, 103,
  107, 106,
  109, 108,
  110, 108,
  112, 111,
  114, 113,
  116, 115,
  117, 115,
  119, 118,
  121, 120,
  123, 122,
  125, 124,
  126, 124,
  128, 127,
  130, 129,
  132, 131,
  133, 131,
  135, 134,
  137, 136,
  139, 138,
  141, 140,
  142, 140,
  144, 143,
  146, 145,
  147, 145,
  149, 148,
  151, 150,
  153, 152,
  154, 152,
  156, 155,
  158, 157,
  160, 159,
  162, 161,
  163, 161,
  165, 164,
  167, 166,
  169, 168,
  170, 168,
  172, 171,
  174, 173,
  175, 173,
  177, 176,
  179, 178,
  181, 180,
  182, 180,
  184, 183,
  186, 185,
  188, 187,
  190, 189,
  191, 189,
  193, 192,
  195, 194,
  196, 194,
  198, 197,
  200, 199,
  202, 201,
  203, 201,
  205, 204,
  207, 206,
  209, 208,
  211, 210,
  212, 210,
  214, 213,
  216, 215,
  218, 217,
  219, 217,
  221, 220,
  223, 222,
  224, 222,
  226, 225,
  228, 227,
  230, 229,
  231, 229,
  233, 232,
  235, 234,
  237, 236,
  239, 238,
  240, 238,
  242, 241,
  244, 243,
  246, 245,
  247, 245,
  249, 248,
  251, 250,
  253, 252,
  255, 254,
  256, 254,
  258, 257,
  260, 259,
  261, 259,
  263, 262,
  265, 264,
  267, 266,
  268, 266,
  270, 269,
  272, 271,
  274, 273,
  276, 275,
  277, 275,
  279, 278,
  281, 280,
  283, 282,
  284, 282,
  286, 285,
  288, 287,
  289, 287,
  291, 290,
  293, 292,
  295, 294,
  296, 294,
  298, 297,
  300, 299,
  302, 301,
  304, 303,
  305, 303,
  307, 306,
  309, 308,
  310, 308,
  312, 311,
  314, 313,
  316, 315,
  317, 315,
  319, 318,
  321, 320,
  323, 322,
  325, 324,
  326, 324,
  328, 327,
  330, 329,
  332, 331,
  333, 331,
  335, 334,
  337, 336,
  339, 338,
  341, 340,
  342, 340,
  344, 343,
  346, 345,
  347, 345,
  349, 348,
  351, 350,
  353, 352,
  354, 352,
  356, 355,
  358, 357,
  360, 359,
  362, 361,
  363, 361,
  365, 364,
  367, 366,
  369, 368,
  370, 368,
  372, 371,
  374, 373,
  375, 373,
  377, 376,
  379, 378,
  381, 380,
  382, 380,
  384, 383,
  386, 385,
  388, 387,
  390, 389,
  391, 389,
  393, 392,
  395, 394,
  396, 394,
  398, 397,
  400, 399,
  402, 401,
  403, 401,
  405, 404,
  407, 406,
  409, 408,
  411, 410,
  412, 410,
  414, 413,
  416, 415,
  418, 417,
  419, 417,
  421, 420,
  423, 422,
  424, 422,
  426, 425,
  428, 427,
  430, 429,
  431, 429,
  433, 432,
  435, 434,
  437, 436,
  439, 438,
  440, 438,
  442, 441,
  444, 443,
  446, 445,
  447, 445,
  449, 448,
  451, 450,
  453, 452,
  455, 454,
  456, 454,
  458, 457,
  460, 459,
  461, 459,
  463, 462,
  465, 464,
  2, 1,
  3, 1,
  5, 4,
  7, 6,
  9, 8,
  11, 10,
  12, 10,
  14, 13,
  16, 15,
  18, 17,
  19, 17,
  21, 20,
  23, 22,
  24, 22,
  26, 25,
  28, 27,
  30, 29,
  31, 29,
  33, 32,
  35, 34,
  37, 36,
  39, 38,
  40, 38,
  42, 41,
  44, 43,
  45, 43,
  47, 46,
  49, 48,
  51, 50,
  52, 50,
  54, 53,
  56, 55,
  58, 57,
  60, 59,
  61, 59,
  63, 62,
  65, 64,
  67, 66,
  68, 66,
  70, 69,
  72, 71,
  74, 73,
  76, 75,
  77, 75,
  79, 78,
  81, 80,
  82, 80,
  84, 83,
  86, 85,
  88, 87,
  89, 87,
  91, 90,
  93, 92,
  95, 94,
  97, 96,
  98, 96,
  100, 99,
  102, 101,
  104, 103,
  105, 103,
  107, 106,
  109, 108,
  110, 108,
  112, 111,
  114, 113,
  116, 115,
  117, 115,
  119, 118,
  121, 120,
  123, 122,
  125, 124,
  126, 124,
  128, 127,
  130, 129,
  132, 131,
  133, 131,
  135, 134,
  137, 136,
  139, 138,
  141, 140,
  142, 140,
  144, 143,
  146, 145,
  147, 145,
  149, 148,
  151, 150,
  267, 266,
  268, 266,
  270, 269,
  272, 271,
  274, 273,
  276, 275,
  277, 275,
  279, 278,
  281, 280,
  283, 282,
  284, 282,
  286, 285,
  288, 287,
  289, 287,
  291, 290,
  293, 292,
  295, 294,
  296, 294,
  298, 297,
  300, 299,
  302, 301,
  304, 303,
  305, 303,
  307, 306,
  309, 308,
  310, 308,
  312, 311,
  314, 313,
  316, 315,
  317, 315,
  319, 318,
  321, 320,
  323, 322,
  325, 324,
  326, 324,
  328, 327,
  330, 329,
  332, 331,
  333, 331,
  335, 334,
  337, 336,
  339, 338,
  341, 340,
  342, 340,
  344, 343,
  346, 345,
  347, 345,
  349, 348,
  351, 350,
  353, 352,
  354, 352,
  356, 355,
  358, 357,
  360, 359,
  362, 361,
  363, 361,
  365, 364,
  367, 366,
  369, 368,
  370, 368,
  372, 371,
  374, 373,
  375, 373,
  377, 376,
  379, 378,
  381, 380,
  382, 380,
  384, 383,
  386, 385,
  388, 387,
  390, 389,
  391, 389,
  393, 392,
  395, 394,
  396, 394,
  398, 397,
  400, 399,
  402, 401,
  403, 401,
  405, 404,
  407, 406,
  409, 408,
  411, 410,
  412, 410,
  414, 413,
  416, 415,
  418, 417,
  419, 417,
  421, 420,
  423, 422,
  424, 422,
  426, 425,
  428, 427,
  430, 429,
  431, 429,
  433, 432,
  435, 434,
  437, 436,
  439, 438,
  440, 438,
  442, 441,
  444, 443,
  446, 445,
  447, 445,
  449, 448,
  451, 450,
  453, 452,
  455, 454,
  456, 454,
  458, 457,
  460, 459,
  461, 459,
  463, 462,
  465, 464
]);
d_nfa = array2d(1..465, 1..2, [
  {}, {},
  {}, {},
  {}, {},
  {}, {},
  {}, {},
  {}, {},
  {}, {},
  {}, {},
  {}, {},
  {}, {},
  {}, {},
  {}, {},
  {}, {},
  {}, {},
  {}, {},
  {}, {},
  {}, {},
  {}, {},
  {}, {},
  {}, {},
  {}, {},
  {}, {},
  {}, {},
  {}, {},
  {}, {},
  {}, {},
  {}, {},
  {}, {},
  {}, {},
  {}, {},
  {}, {},
  {}, {},
  {}, {},
  {}, {},
  {}, {},
  {}, {},
  {}, {},
  {}, {},
  {}, {},
  {}, {},
  {}, {},
  {}, {},
  {}, {},
  {}, {},
  {}, {},
  {}, {},
  {}, {},
  {}, {},
  {}, {},
  {}, {},
  {}, {},
  {}, {},
  {}, {},
  {}, {},
  {}, {},
  {}, {},
  {}, {},
  {}, {},
  {}, {},
  {}, {},
  {}, {},
  {}, {},
  {}, {},
  {}, {},
  {}, {},
  {}, {},
  {}, {},
  {}, {},
  {}, {},
  {}, {},
  {}, {},
  {}, {},
  {}, {},
  {}, {},
  {}, {},
  {}, {},
  {}, {},
  {}, {},
  {}, {},
  {}, {},
  {}, {},
  {}, {},
  {}, {},
  {}, {},
  {}, {},
  {}, {},
  {}, {},
  {}, {},
  {}, {},
  {}, {},
  {}, {},
  {}, {},
  {}, {},
  {}, {},
  {}, {},
  {}, {},
  {}, {},
  {}, {},
  {}, {},
  {}, {},
  {}, {},
  {}, {},
  {}, {},
  {}, {},
  {}, {},
  {}, {},
  {}, {},
  {}, {},
  {}, {},
  {}, {},
  {}, {},
  {}, {},
  {}, {},
  {}, {},
  {}, {},
  {}, {},
  {}, {},
  {}, {},
  {}, {},
  {}, {},
  {}, {},
  {}, {},
  {}, {},
  {}, {},
  {}, {},
  {}, {},
  {}, {},
  {}, {},
  {}, {},
  {}, {},
  {}, {},
  {}, {},
  {}, {},
  {}, {},
  {}, {},
  {}, {},
  {}, {},
  {}, {},
  {}, {},
  {}, {},
  {}, {},
  {}, {},
  {}, {},
  {}, {},
  {}, {},
  {}, {},
  {}, {},
  {}, {},
  {}, {},
  {}, {},
  {}, {},
  {}, {},
  {}, {},
  {}, {},
  {}, {},
  {}, {},
  {}, {},
  {}, {},
  {}, {},
  {}, {},
  {}, {},
  {}, {},
  {}, {},
  {}, {},
  {}, {},
  {}, {},
  {}, {},
  {}, {},
  {}, {},
  {}, {},
  {}, {},
  {}, {},
  {}, {},
  {}, {},
  {}, {},
  {}, {},
  {}, {},
  {}, {},
  {}, {},
  {}, {},
  {}, {},
  {}, {},
  {}, {},
  {}, {},
  {}, {},
  {}, {},
  {}, {},
  {}, {},
  {}, {},
  {}, {},
  {}, {},
  {}, {},
  {}, {},
  {}, {},
  {}, {},
  {}, {},
  {}, {},
  {}, {},
  {}, {},
  {}, {},
  {}, {},
  {}, {},
  {}, {},
  {}, {},
  {}, {},
  {}, {},
  {}, {},
  {}, {},
  {}, {},
  {}, {},
  {}, {},
  {}, {},
  {}, {},
  {}, {},
  {}, {},
  {}, {},
  {}, {},
  {}, {},
  {}, {},
  {}, {},
  {}, {},
  {}, {},
  {}, {},
  {}, {},
  {}, {},
  {}, {},
  {}, {},
  {}, {},
  {}, {},
  {}, {},
  {}, {},
  {}, {},
  {}, {},
  {}, {},
  {}, {},
  {}, {},
  {}, {},
  {}, {},
  {}, {},
  {}, {},
  {}, {},
  {}, {},
  {}, {},
  {}, {},
  {}, {},
  {}, {},
  {}, {},
  {}, {},
  {}, {},
  {}, {},
  {}, {},
  {}, {},
  {}, {},
  {}, {},
  {}, {},
  {}, {},
  {}, {},
  {}, {},
  {}, {},
  {}, {},
  {}, {},
  {}, {},
  {}, {},
  {}, {},
  {}, {},
  {}, {},
  {}, {},
  {}, {},
  {}, {},
  {}, {},
  {}, {},
  {}, {},
  {}, {},
  {}, {},
  {}, {},
  {}, {},
  {}, {},
  {}, {},
  {}, {},
  {}, {},
  {}, {},
  {}, {},
  {}, {},
  {}, {},
  {}, {},
  {}, {},
  {}, {},
  {}, {},
  {}, {},
  {}, {},
  {}, {},
  {}, {},
  {}, {},
  {}, {},
  {}, {},
  {}, {},
  {}, {},
  {}, {},
  {}, {},
  {}, {},
  {}, {},
  {}, {},
  {}, {},
  {}, {},
  {}, {},
  {}, {},
  {}, {},
  {}, {},
  {}, {},
  {}, {},
  {}, {},
  {}, {},
  {}, {},
  {}, {},
  {}, {},
  {}, {},
  {}, {},
  {}, {},
  {}, {},
  {}, {},
  {}, {},
  {}, {},
  {}, {},
  {}, {},
  {}, {},
  {}, {},
  {}, {},
  {}, {},
  {}, {},
  {}, {},
  {}, {},
  {}, {},
  {}, {},
  {}, {},
  {}, {},
  {}, {},
  {}, {},
  {}, {},
  {}, {},
  {}, {},
  {}, {},
  {}, {},
  {}, {},
  {}, {},
  {}, {},
  {}, {},
  {}, {},
  {}, {},
  {}, {},
  {}, {},
  {}, {},
  {}, {},
  {}, {},
  {}, {},
  {}, {},
  {}, {},
  {}, {},
  {}, {},
  {}, {},
  {}, {},
  {}, {},
  {}, {},
  {}, {},
  {}, {},
  {}, {},
  {}, {},
  {}, {},
  {}, {},
  {}, {},
  {}, {},
  {}, {},
  {}, {},
  {}, {},
  {}, {},
  {}, {},
  {}, {},
  {}, {},
  {}, {},
  {}, {},
  {}, {},
  {}, {},
  {}, {},
  {}, {},
  {}, {},
  {}, {},
  {}, {},
  {}, {},
  {}, {},
  {}, {},
  {}, {},
  {}, {},
  {}, {},
  {}, {},
  {}, {},
  {}, {},
  {}, {},
  {}, {},
  {}, {},
  {}, {},
  {}, {},
  {}, {},
  {}, {},
  {}, {},
  {}, {},
  {}, {},
  {}, {},
  {}, {},
  {}, {},
  {}, {},
  {}, {},
  {}, {},
  {}, {},
  {}, {},
  {}, {},
  {}, {},
  {}, {},
  {}, {},
  {}, {},
  {}, {},
  {}, {},
  {}, {},
  {}, {},
  {}, {},
  {}, {},
  {}, {},
  {}, {},
  {}, {},
  {}, {},
  {}, {},
  {}, {},
  {}, {},
  {}, {},
  {}, {},
  {}, {},
  {}, {},
  {}, {},
  {}, {},
  {}, {},
  {}, {},
  {}, {},
  {}, {},
  {}, {},
  {}, {},
  {}, {},
  {}, {},
  {}, {},
  {}, {},
  {}, {},
  {}, {},
  {}, {},
  {}, {},
  {}, {},
  {}, {},
  {}, {},
  {}, {},
  {}, {},
  {}, {},
  {}, {},
  {}, {},
  {}, {},
  {}, {},
  {}, {},
  {}, {},
  {}, {},
  {}, {}
]);
